30
30
1
3
3600
501 575 601 608 643 1002 1041 1143 1163 1238 1242 1257 1375 1409 1542 1587 1644 1820 2375 2476 2514 2590 2681 2700 2708 2840 2903 2930 2961 2972 
5 18 36 20 16 39 7 14 5 25 31 9 12 37 25 38 34 24 30 23 28 34 26 35 35 39 11 22 7 24 
